Route #1: 51 7 15 28
Route #2: 10 8 43 29 61 40 20
Route #3: 6 32 57 50 17 58 33 55
Route #4: 56 60 25 49 35 26 59
Route #5: 34 31 11 4 21 41 23 27 39 3 54 9 13 12 53
Route #6: 48 14 5 1 30 18 19 38
Route #7: 45 47 24 42 46
Route #8: 52 2 44 22 37 16 36
Cost 1290
Time 0.145043
